(set-info :original "/var/folders/xz/sgqbj6yn0yv_1mpy6_jqympm0000gn/T/sea-3sOeY6/standard_init8_ground-2.pp.ms.o.bc")
(set-info :authors "SeaHorn v.0.1.0-rc3")
(declare-rel verifier.error (Bool Bool Bool ))
(declare-rel __JVERIFIER_assert@_call (Int ))
(declare-rel __JVERIFIER_assert@_ret (Int ))
(declare-rel __JVERIFIER_assert (Bool Bool Bool Int ))
(declare-rel main@entry ())
(declare-rel main@_bb (Int Int (Array Int Int) ))
(declare-rel main@_bb11 (Int Int (Array Int Int) ))
(declare-rel main@_bb14 (Int Int (Array Int Int) ))
(declare-rel main@_bb17 (Int Int (Array Int Int) ))
(declare-rel main@_bb20 (Int Int (Array Int Int) ))
(declare-rel main@_bb23 (Int Int (Array Int Int) ))
(declare-rel main@_bb26 (Int Int (Array Int Int) ))
(declare-rel main@_bb29 (Int Int (Array Int Int) ))
(declare-rel main@_bb32 (Int (Array Int Int) Int ))
(declare-rel main@verifier.error.split ())
(declare-var __JVERIFIER_assert@%_call1_0 Bool )
(declare-var __JVERIFIER_assert@arg.0_0 Int )
(declare-var __JVERIFIER_assert@_call_0 Bool )
(declare-var __JVERIFIER_assert@_ret_0 Bool )
(declare-var main@%_5_0 Int )
(declare-var main@%_11_0 Int )
(declare-var main@%_17_0 Int )
(declare-var main@%_23_0 Int )
(declare-var main@%_29_0 Int )
(declare-var main@%_35_0 Int )
(declare-var main@%_41_0 Int )
(declare-var main@%_47_0 Int )
(declare-var main@%_59_0 Bool )
(declare-var main@%_53_0 Int )
(declare-var main@%_54_0 Int )
(declare-var main@%_55_0 Bool )
(declare-var main@%_57_0 Bool )
(declare-var main@%_51_0 Bool )
(declare-var main@%_45_0 Bool )
(declare-var main@%_39_0 Bool )
(declare-var main@%_33_0 Bool )
(declare-var main@%_27_0 Bool )
(declare-var main@%_21_0 Bool )
(declare-var main@%_15_0 Bool )
(declare-var main@%_9_0 Bool )
(declare-var main@%_3_0 Bool )
(declare-var main@%_1_0 Int )
(declare-var main@entry_0 Bool )
(declare-var main@%sm8_0 (Array Int Int) )
(declare-var main@%_0_0 Int )
(declare-var main@_bb_0 Bool )
(declare-var main@%shadow.mem.0.0_0 (Array Int Int) )
(declare-var main@%.01.i_0 Int )
(declare-var main@%shadow.mem.0.0_1 (Array Int Int) )
(declare-var main@%.01.i_1 Int )
(declare-var main@_bb9_0 Bool )
(declare-var main@%sm_0 (Array Int Int) )
(declare-var main@%_6_0 Int )
(declare-var main@_bb_1 Bool )
(declare-var main@%shadow.mem.0.0_2 (Array Int Int) )
(declare-var main@%.01.i_2 Int )
(declare-var main@_bb10_0 Bool )
(declare-var main@_bb11_0 Bool )
(declare-var main@%shadow.mem.0.1_0 (Array Int Int) )
(declare-var main@%.1.i_0 Int )
(declare-var main@%shadow.mem.0.1_1 (Array Int Int) )
(declare-var main@%.1.i_1 Int )
(declare-var main@_bb12_0 Bool )
(declare-var main@%sm1_0 (Array Int Int) )
(declare-var main@%_12_0 Int )
(declare-var main@_bb11_1 Bool )
(declare-var main@%shadow.mem.0.1_2 (Array Int Int) )
(declare-var main@%.1.i_2 Int )
(declare-var main@_bb13_0 Bool )
(declare-var main@_bb14_0 Bool )
(declare-var main@%shadow.mem.0.2_0 (Array Int Int) )
(declare-var main@%.2.i_0 Int )
(declare-var main@%shadow.mem.0.2_1 (Array Int Int) )
(declare-var main@%.2.i_1 Int )
(declare-var main@_bb15_0 Bool )
(declare-var main@%sm2_0 (Array Int Int) )
(declare-var main@%_18_0 Int )
(declare-var main@_bb14_1 Bool )
(declare-var main@%shadow.mem.0.2_2 (Array Int Int) )
(declare-var main@%.2.i_2 Int )
(declare-var main@_bb16_0 Bool )
(declare-var main@_bb17_0 Bool )
(declare-var main@%shadow.mem.0.3_0 (Array Int Int) )
(declare-var main@%.3.i_0 Int )
(declare-var main@%shadow.mem.0.3_1 (Array Int Int) )
(declare-var main@%.3.i_1 Int )
(declare-var main@_bb18_0 Bool )
(declare-var main@%sm3_0 (Array Int Int) )
(declare-var main@%_24_0 Int )
(declare-var main@_bb17_1 Bool )
(declare-var main@%shadow.mem.0.3_2 (Array Int Int) )
(declare-var main@%.3.i_2 Int )
(declare-var main@_bb19_0 Bool )
(declare-var main@_bb20_0 Bool )
(declare-var main@%shadow.mem.0.4_0 (Array Int Int) )
(declare-var main@%.4.i_0 Int )
(declare-var main@%shadow.mem.0.4_1 (Array Int Int) )
(declare-var main@%.4.i_1 Int )
(declare-var main@_bb21_0 Bool )
(declare-var main@%sm4_0 (Array Int Int) )
(declare-var main@%_30_0 Int )
(declare-var main@_bb20_1 Bool )
(declare-var main@%shadow.mem.0.4_2 (Array Int Int) )
(declare-var main@%.4.i_2 Int )
(declare-var main@_bb22_0 Bool )
(declare-var main@_bb23_0 Bool )
(declare-var main@%shadow.mem.0.5_0 (Array Int Int) )
(declare-var main@%.5.i_0 Int )
(declare-var main@%shadow.mem.0.5_1 (Array Int Int) )
(declare-var main@%.5.i_1 Int )
(declare-var main@_bb24_0 Bool )
(declare-var main@%sm5_0 (Array Int Int) )
(declare-var main@%_36_0 Int )
(declare-var main@_bb23_1 Bool )
(declare-var main@%shadow.mem.0.5_2 (Array Int Int) )
(declare-var main@%.5.i_2 Int )
(declare-var main@_bb25_0 Bool )
(declare-var main@_bb26_0 Bool )
(declare-var main@%shadow.mem.0.6_0 (Array Int Int) )
(declare-var main@%.6.i_0 Int )
(declare-var main@%shadow.mem.0.6_1 (Array Int Int) )
(declare-var main@%.6.i_1 Int )
(declare-var main@_bb27_0 Bool )
(declare-var main@%sm6_0 (Array Int Int) )
(declare-var main@%_42_0 Int )
(declare-var main@_bb26_1 Bool )
(declare-var main@%shadow.mem.0.6_2 (Array Int Int) )
(declare-var main@%.6.i_2 Int )
(declare-var main@_bb28_0 Bool )
(declare-var main@_bb29_0 Bool )
(declare-var main@%shadow.mem.0.7_0 (Array Int Int) )
(declare-var main@%.7.i_0 Int )
(declare-var main@%shadow.mem.0.7_1 (Array Int Int) )
(declare-var main@%.7.i_1 Int )
(declare-var main@_bb30_0 Bool )
(declare-var main@%sm7_0 (Array Int Int) )
(declare-var main@%_48_0 Int )
(declare-var main@_bb29_1 Bool )
(declare-var main@%shadow.mem.0.7_2 (Array Int Int) )
(declare-var main@%.7.i_2 Int )
(declare-var main@_bb31_0 Bool )
(declare-var main@_bb32_0 Bool )
(declare-var main@%.0.i_0 Int )
(declare-var main@%.0.i_1 Int )
(declare-var main@_bb33_0 Bool )
(declare-var main@%_56_0 Int )
(declare-var main@postcall_0 Bool )
(declare-var main@%_58_0 Int )
(declare-var main@_bb32_1 Bool )
(declare-var main@%.0.i_2 Int )
(declare-var main@precall_0 Bool )
(declare-var main@__JVERIFIER_assert_0 Bool )
(declare-var main@_bb34_0 Bool )
(declare-var main@verifier.error_0 Bool )
(declare-var main@verifier.error.split_0 Bool )
(rule (verifier.error false false false))
(rule (verifier.error false true true))
(rule (verifier.error true false true))
(rule (verifier.error true true true))
(rule (__JVERIFIER_assert true true true __JVERIFIER_assert@arg.0_0))
(rule (__JVERIFIER_assert false true true __JVERIFIER_assert@arg.0_0))
(rule (__JVERIFIER_assert false false false __JVERIFIER_assert@arg.0_0))
(rule (__JVERIFIER_assert@_call __JVERIFIER_assert@arg.0_0))
(rule (=> (and (__JVERIFIER_assert@_call __JVERIFIER_assert@arg.0_0)
         true
         (= __JVERIFIER_assert@%_call1_0 (= __JVERIFIER_assert@arg.0_0 0))
         (not __JVERIFIER_assert@%_call1_0)
         (=> __JVERIFIER_assert@_ret_0
             (and __JVERIFIER_assert@_ret_0 __JVERIFIER_assert@_call_0))
         __JVERIFIER_assert@_ret_0)
    (__JVERIFIER_assert@_ret __JVERIFIER_assert@arg.0_0)))
(rule (=> (__JVERIFIER_assert@_ret __JVERIFIER_assert@arg.0_0)
    (__JVERIFIER_assert true false false __JVERIFIER_assert@arg.0_0)))
(rule main@entry)
(rule (=> (and main@entry
         true
         (> main@%_0_0 0)
         (= main@%_1_0 main@%_0_0)
         (=> main@_bb_0 (and main@_bb_0 main@entry_0))
         (=> (and main@_bb_0 main@entry_0)
             (= main@%shadow.mem.0.0_0 main@%sm8_0))
         (=> (and main@_bb_0 main@entry_0) (= main@%.01.i_0 0))
         (=> (and main@_bb_0 main@entry_0)
             (= main@%shadow.mem.0.0_1 main@%shadow.mem.0.0_0))
         (=> (and main@_bb_0 main@entry_0) (= main@%.01.i_1 main@%.01.i_0))
         main@_bb_0)
    (main@_bb main@%_0_0 main@%.01.i_1 main@%shadow.mem.0.0_1)))
(rule (let ((a!1 (=> main@_bb9_0
               (= main@%_5_0 (+ main@%_0_0 (* 0 400000) (* main@%.01.i_0 4))))))
(let ((a!2 (and (main@_bb main@%_0_0 main@%.01.i_0 main@%shadow.mem.0.0_0)
                true
                (= main@%_3_0 (< main@%.01.i_0 100000))
                (=> main@_bb9_0 (and main@_bb9_0 main@_bb_0))
                (=> (and main@_bb9_0 main@_bb_0) main@%_3_0)
                a!1
                (=> main@_bb9_0 (or (<= main@%_0_0 0) (> main@%_5_0 0)))
                (=> main@_bb9_0 (> main@%_0_0 0))
                (=> main@_bb9_0
                    (= main@%sm_0 (store main@%shadow.mem.0.0_0 main@%_5_0 42)))
                (=> main@_bb9_0 (= main@%_6_0 (+ main@%.01.i_0 1)))
                (=> main@_bb_1 (and main@_bb_1 main@_bb9_0))
                (=> (and main@_bb_1 main@_bb9_0)
                    (= main@%shadow.mem.0.0_1 main@%sm_0))
                (=> (and main@_bb_1 main@_bb9_0) (= main@%.01.i_1 main@%_6_0))
                (=> (and main@_bb_1 main@_bb9_0)
                    (= main@%shadow.mem.0.0_2 main@%shadow.mem.0.0_1))
                (=> (and main@_bb_1 main@_bb9_0)
                    (= main@%.01.i_2 main@%.01.i_1))
                main@_bb_1)))
  (=> a!2 (main@_bb main@%_0_0 main@%.01.i_2 main@%shadow.mem.0.0_2)))))
(rule (=> (and (main@_bb main@%_0_0 main@%.01.i_0 main@%shadow.mem.0.0_0)
         true
         (= main@%_3_0 (< main@%.01.i_0 100000))
         (=> main@_bb10_0 (and main@_bb10_0 main@_bb_0))
         (=> (and main@_bb10_0 main@_bb_0) (not main@%_3_0))
         (=> main@_bb11_0 (and main@_bb11_0 main@_bb10_0))
         (=> (and main@_bb11_0 main@_bb10_0)
             (= main@%shadow.mem.0.1_0 main@%shadow.mem.0.0_0))
         (=> (and main@_bb11_0 main@_bb10_0) (= main@%.1.i_0 0))
         (=> (and main@_bb11_0 main@_bb10_0)
             (= main@%shadow.mem.0.1_1 main@%shadow.mem.0.1_0))
         (=> (and main@_bb11_0 main@_bb10_0) (= main@%.1.i_1 main@%.1.i_0))
         main@_bb11_0)
    (main@_bb11 main@%_0_0 main@%.1.i_1 main@%shadow.mem.0.1_1)))
(rule (let ((a!1 (=> main@_bb12_0
               (= main@%_11_0 (+ main@%_0_0 (* 0 400000) (* main@%.1.i_0 4))))))
(let ((a!2 (and (main@_bb11 main@%_0_0 main@%.1.i_0 main@%shadow.mem.0.1_0)
                true
                (= main@%_9_0 (< main@%.1.i_0 100000))
                (=> main@_bb12_0 (and main@_bb12_0 main@_bb11_0))
                (=> (and main@_bb12_0 main@_bb11_0) main@%_9_0)
                a!1
                (=> main@_bb12_0 (or (<= main@%_0_0 0) (> main@%_11_0 0)))
                (=> main@_bb12_0 (> main@%_0_0 0))
                (=> main@_bb12_0
                    (= main@%sm1_0
                       (store main@%shadow.mem.0.1_0 main@%_11_0 43)))
                (=> main@_bb12_0 (= main@%_12_0 (+ main@%.1.i_0 1)))
                (=> main@_bb11_1 (and main@_bb11_1 main@_bb12_0))
                (=> (and main@_bb11_1 main@_bb12_0)
                    (= main@%shadow.mem.0.1_1 main@%sm1_0))
                (=> (and main@_bb11_1 main@_bb12_0)
                    (= main@%.1.i_1 main@%_12_0))
                (=> (and main@_bb11_1 main@_bb12_0)
                    (= main@%shadow.mem.0.1_2 main@%shadow.mem.0.1_1))
                (=> (and main@_bb11_1 main@_bb12_0)
                    (= main@%.1.i_2 main@%.1.i_1))
                main@_bb11_1)))
  (=> a!2 (main@_bb11 main@%_0_0 main@%.1.i_2 main@%shadow.mem.0.1_2)))))
(rule (=> (and (main@_bb11 main@%_0_0 main@%.1.i_0 main@%shadow.mem.0.1_0)
         true
         (= main@%_9_0 (< main@%.1.i_0 100000))
         (=> main@_bb13_0 (and main@_bb13_0 main@_bb11_0))
         (=> (and main@_bb13_0 main@_bb11_0) (not main@%_9_0))
         (=> main@_bb14_0 (and main@_bb14_0 main@_bb13_0))
         (=> (and main@_bb14_0 main@_bb13_0)
             (= main@%shadow.mem.0.2_0 main@%shadow.mem.0.1_0))
         (=> (and main@_bb14_0 main@_bb13_0) (= main@%.2.i_0 0))
         (=> (and main@_bb14_0 main@_bb13_0)
             (= main@%shadow.mem.0.2_1 main@%shadow.mem.0.2_0))
         (=> (and main@_bb14_0 main@_bb13_0) (= main@%.2.i_1 main@%.2.i_0))
         main@_bb14_0)
    (main@_bb14 main@%_0_0 main@%.2.i_1 main@%shadow.mem.0.2_1)))
(rule (let ((a!1 (=> main@_bb15_0
               (= main@%_17_0 (+ main@%_0_0 (* 0 400000) (* main@%.2.i_0 4))))))
(let ((a!2 (and (main@_bb14 main@%_0_0 main@%.2.i_0 main@%shadow.mem.0.2_0)
                true
                (= main@%_15_0 (< main@%.2.i_0 100000))
                (=> main@_bb15_0 (and main@_bb15_0 main@_bb14_0))
                (=> (and main@_bb15_0 main@_bb14_0) main@%_15_0)
                a!1
                (=> main@_bb15_0 (or (<= main@%_0_0 0) (> main@%_17_0 0)))
                (=> main@_bb15_0 (> main@%_0_0 0))
                (=> main@_bb15_0
                    (= main@%sm2_0
                       (store main@%shadow.mem.0.2_0 main@%_17_0 44)))
                (=> main@_bb15_0 (= main@%_18_0 (+ main@%.2.i_0 1)))
                (=> main@_bb14_1 (and main@_bb14_1 main@_bb15_0))
                (=> (and main@_bb14_1 main@_bb15_0)
                    (= main@%shadow.mem.0.2_1 main@%sm2_0))
                (=> (and main@_bb14_1 main@_bb15_0)
                    (= main@%.2.i_1 main@%_18_0))
                (=> (and main@_bb14_1 main@_bb15_0)
                    (= main@%shadow.mem.0.2_2 main@%shadow.mem.0.2_1))
                (=> (and main@_bb14_1 main@_bb15_0)
                    (= main@%.2.i_2 main@%.2.i_1))
                main@_bb14_1)))
  (=> a!2 (main@_bb14 main@%_0_0 main@%.2.i_2 main@%shadow.mem.0.2_2)))))
(rule (=> (and (main@_bb14 main@%_0_0 main@%.2.i_0 main@%shadow.mem.0.2_0)
         true
         (= main@%_15_0 (< main@%.2.i_0 100000))
         (=> main@_bb16_0 (and main@_bb16_0 main@_bb14_0))
         (=> (and main@_bb16_0 main@_bb14_0) (not main@%_15_0))
         (=> main@_bb17_0 (and main@_bb17_0 main@_bb16_0))
         (=> (and main@_bb17_0 main@_bb16_0)
             (= main@%shadow.mem.0.3_0 main@%shadow.mem.0.2_0))
         (=> (and main@_bb17_0 main@_bb16_0) (= main@%.3.i_0 0))
         (=> (and main@_bb17_0 main@_bb16_0)
             (= main@%shadow.mem.0.3_1 main@%shadow.mem.0.3_0))
         (=> (and main@_bb17_0 main@_bb16_0) (= main@%.3.i_1 main@%.3.i_0))
         main@_bb17_0)
    (main@_bb17 main@%_0_0 main@%.3.i_1 main@%shadow.mem.0.3_1)))
(rule (let ((a!1 (=> main@_bb18_0
               (= main@%_23_0 (+ main@%_0_0 (* 0 400000) (* main@%.3.i_0 4))))))
(let ((a!2 (and (main@_bb17 main@%_0_0 main@%.3.i_0 main@%shadow.mem.0.3_0)
                true
                (= main@%_21_0 (< main@%.3.i_0 100000))
                (=> main@_bb18_0 (and main@_bb18_0 main@_bb17_0))
                (=> (and main@_bb18_0 main@_bb17_0) main@%_21_0)
                a!1
                (=> main@_bb18_0 (or (<= main@%_0_0 0) (> main@%_23_0 0)))
                (=> main@_bb18_0 (> main@%_0_0 0))
                (=> main@_bb18_0
                    (= main@%sm3_0
                       (store main@%shadow.mem.0.3_0 main@%_23_0 45)))
                (=> main@_bb18_0 (= main@%_24_0 (+ main@%.3.i_0 1)))
                (=> main@_bb17_1 (and main@_bb17_1 main@_bb18_0))
                (=> (and main@_bb17_1 main@_bb18_0)
                    (= main@%shadow.mem.0.3_1 main@%sm3_0))
                (=> (and main@_bb17_1 main@_bb18_0)
                    (= main@%.3.i_1 main@%_24_0))
                (=> (and main@_bb17_1 main@_bb18_0)
                    (= main@%shadow.mem.0.3_2 main@%shadow.mem.0.3_1))
                (=> (and main@_bb17_1 main@_bb18_0)
                    (= main@%.3.i_2 main@%.3.i_1))
                main@_bb17_1)))
  (=> a!2 (main@_bb17 main@%_0_0 main@%.3.i_2 main@%shadow.mem.0.3_2)))))
(rule (=> (and (main@_bb17 main@%_0_0 main@%.3.i_0 main@%shadow.mem.0.3_0)
         true
         (= main@%_21_0 (< main@%.3.i_0 100000))
         (=> main@_bb19_0 (and main@_bb19_0 main@_bb17_0))
         (=> (and main@_bb19_0 main@_bb17_0) (not main@%_21_0))
         (=> main@_bb20_0 (and main@_bb20_0 main@_bb19_0))
         (=> (and main@_bb20_0 main@_bb19_0)
             (= main@%shadow.mem.0.4_0 main@%shadow.mem.0.3_0))
         (=> (and main@_bb20_0 main@_bb19_0) (= main@%.4.i_0 0))
         (=> (and main@_bb20_0 main@_bb19_0)
             (= main@%shadow.mem.0.4_1 main@%shadow.mem.0.4_0))
         (=> (and main@_bb20_0 main@_bb19_0) (= main@%.4.i_1 main@%.4.i_0))
         main@_bb20_0)
    (main@_bb20 main@%_0_0 main@%.4.i_1 main@%shadow.mem.0.4_1)))
(rule (let ((a!1 (=> main@_bb21_0
               (= main@%_29_0 (+ main@%_0_0 (* 0 400000) (* main@%.4.i_0 4))))))
(let ((a!2 (and (main@_bb20 main@%_0_0 main@%.4.i_0 main@%shadow.mem.0.4_0)
                true
                (= main@%_27_0 (< main@%.4.i_0 100000))
                (=> main@_bb21_0 (and main@_bb21_0 main@_bb20_0))
                (=> (and main@_bb21_0 main@_bb20_0) main@%_27_0)
                a!1
                (=> main@_bb21_0 (or (<= main@%_0_0 0) (> main@%_29_0 0)))
                (=> main@_bb21_0 (> main@%_0_0 0))
                (=> main@_bb21_0
                    (= main@%sm4_0
                       (store main@%shadow.mem.0.4_0 main@%_29_0 46)))
                (=> main@_bb21_0 (= main@%_30_0 (+ main@%.4.i_0 1)))
                (=> main@_bb20_1 (and main@_bb20_1 main@_bb21_0))
                (=> (and main@_bb20_1 main@_bb21_0)
                    (= main@%shadow.mem.0.4_1 main@%sm4_0))
                (=> (and main@_bb20_1 main@_bb21_0)
                    (= main@%.4.i_1 main@%_30_0))
                (=> (and main@_bb20_1 main@_bb21_0)
                    (= main@%shadow.mem.0.4_2 main@%shadow.mem.0.4_1))
                (=> (and main@_bb20_1 main@_bb21_0)
                    (= main@%.4.i_2 main@%.4.i_1))
                main@_bb20_1)))
  (=> a!2 (main@_bb20 main@%_0_0 main@%.4.i_2 main@%shadow.mem.0.4_2)))))
(rule (=> (and (main@_bb20 main@%_0_0 main@%.4.i_0 main@%shadow.mem.0.4_0)
         true
         (= main@%_27_0 (< main@%.4.i_0 100000))
         (=> main@_bb22_0 (and main@_bb22_0 main@_bb20_0))
         (=> (and main@_bb22_0 main@_bb20_0) (not main@%_27_0))
         (=> main@_bb23_0 (and main@_bb23_0 main@_bb22_0))
         (=> (and main@_bb23_0 main@_bb22_0)
             (= main@%shadow.mem.0.5_0 main@%shadow.mem.0.4_0))
         (=> (and main@_bb23_0 main@_bb22_0) (= main@%.5.i_0 0))
         (=> (and main@_bb23_0 main@_bb22_0)
             (= main@%shadow.mem.0.5_1 main@%shadow.mem.0.5_0))
         (=> (and main@_bb23_0 main@_bb22_0) (= main@%.5.i_1 main@%.5.i_0))
         main@_bb23_0)
    (main@_bb23 main@%_0_0 main@%.5.i_1 main@%shadow.mem.0.5_1)))
(rule (let ((a!1 (=> main@_bb24_0
               (= main@%_35_0 (+ main@%_0_0 (* 0 400000) (* main@%.5.i_0 4))))))
(let ((a!2 (and (main@_bb23 main@%_0_0 main@%.5.i_0 main@%shadow.mem.0.5_0)
                true
                (= main@%_33_0 (< main@%.5.i_0 100000))
                (=> main@_bb24_0 (and main@_bb24_0 main@_bb23_0))
                (=> (and main@_bb24_0 main@_bb23_0) main@%_33_0)
                a!1
                (=> main@_bb24_0 (or (<= main@%_0_0 0) (> main@%_35_0 0)))
                (=> main@_bb24_0 (> main@%_0_0 0))
                (=> main@_bb24_0
                    (= main@%sm5_0
                       (store main@%shadow.mem.0.5_0 main@%_35_0 47)))
                (=> main@_bb24_0 (= main@%_36_0 (+ main@%.5.i_0 1)))
                (=> main@_bb23_1 (and main@_bb23_1 main@_bb24_0))
                (=> (and main@_bb23_1 main@_bb24_0)
                    (= main@%shadow.mem.0.5_1 main@%sm5_0))
                (=> (and main@_bb23_1 main@_bb24_0)
                    (= main@%.5.i_1 main@%_36_0))
                (=> (and main@_bb23_1 main@_bb24_0)
                    (= main@%shadow.mem.0.5_2 main@%shadow.mem.0.5_1))
                (=> (and main@_bb23_1 main@_bb24_0)
                    (= main@%.5.i_2 main@%.5.i_1))
                main@_bb23_1)))
  (=> a!2 (main@_bb23 main@%_0_0 main@%.5.i_2 main@%shadow.mem.0.5_2)))))
(rule (=> (and (main@_bb23 main@%_0_0 main@%.5.i_0 main@%shadow.mem.0.5_0)
         true
         (= main@%_33_0 (< main@%.5.i_0 100000))
         (=> main@_bb25_0 (and main@_bb25_0 main@_bb23_0))
         (=> (and main@_bb25_0 main@_bb23_0) (not main@%_33_0))
         (=> main@_bb26_0 (and main@_bb26_0 main@_bb25_0))
         (=> (and main@_bb26_0 main@_bb25_0)
             (= main@%shadow.mem.0.6_0 main@%shadow.mem.0.5_0))
         (=> (and main@_bb26_0 main@_bb25_0) (= main@%.6.i_0 0))
         (=> (and main@_bb26_0 main@_bb25_0)
             (= main@%shadow.mem.0.6_1 main@%shadow.mem.0.6_0))
         (=> (and main@_bb26_0 main@_bb25_0) (= main@%.6.i_1 main@%.6.i_0))
         main@_bb26_0)
    (main@_bb26 main@%_0_0 main@%.6.i_1 main@%shadow.mem.0.6_1)))
(rule (let ((a!1 (=> main@_bb27_0
               (= main@%_41_0 (+ main@%_0_0 (* 0 400000) (* main@%.6.i_0 4))))))
(let ((a!2 (and (main@_bb26 main@%_0_0 main@%.6.i_0 main@%shadow.mem.0.6_0)
                true
                (= main@%_39_0 (< main@%.6.i_0 100000))
                (=> main@_bb27_0 (and main@_bb27_0 main@_bb26_0))
                (=> (and main@_bb27_0 main@_bb26_0) main@%_39_0)
                a!1
                (=> main@_bb27_0 (or (<= main@%_0_0 0) (> main@%_41_0 0)))
                (=> main@_bb27_0 (> main@%_0_0 0))
                (=> main@_bb27_0
                    (= main@%sm6_0
                       (store main@%shadow.mem.0.6_0 main@%_41_0 48)))
                (=> main@_bb27_0 (= main@%_42_0 (+ main@%.6.i_0 1)))
                (=> main@_bb26_1 (and main@_bb26_1 main@_bb27_0))
                (=> (and main@_bb26_1 main@_bb27_0)
                    (= main@%shadow.mem.0.6_1 main@%sm6_0))
                (=> (and main@_bb26_1 main@_bb27_0)
                    (= main@%.6.i_1 main@%_42_0))
                (=> (and main@_bb26_1 main@_bb27_0)
                    (= main@%shadow.mem.0.6_2 main@%shadow.mem.0.6_1))
                (=> (and main@_bb26_1 main@_bb27_0)
                    (= main@%.6.i_2 main@%.6.i_1))
                main@_bb26_1)))
  (=> a!2 (main@_bb26 main@%_0_0 main@%.6.i_2 main@%shadow.mem.0.6_2)))))
(rule (=> (and (main@_bb26 main@%_0_0 main@%.6.i_0 main@%shadow.mem.0.6_0)
         true
         (= main@%_39_0 (< main@%.6.i_0 100000))
         (=> main@_bb28_0 (and main@_bb28_0 main@_bb26_0))
         (=> (and main@_bb28_0 main@_bb26_0) (not main@%_39_0))
         (=> main@_bb29_0 (and main@_bb29_0 main@_bb28_0))
         (=> (and main@_bb29_0 main@_bb28_0)
             (= main@%shadow.mem.0.7_0 main@%shadow.mem.0.6_0))
         (=> (and main@_bb29_0 main@_bb28_0) (= main@%.7.i_0 0))
         (=> (and main@_bb29_0 main@_bb28_0)
             (= main@%shadow.mem.0.7_1 main@%shadow.mem.0.7_0))
         (=> (and main@_bb29_0 main@_bb28_0) (= main@%.7.i_1 main@%.7.i_0))
         main@_bb29_0)
    (main@_bb29 main@%_0_0 main@%.7.i_1 main@%shadow.mem.0.7_1)))
(rule (let ((a!1 (=> main@_bb30_0
               (= main@%_47_0 (+ main@%_0_0 (* 0 400000) (* main@%.7.i_0 4))))))
(let ((a!2 (and (main@_bb29 main@%_0_0 main@%.7.i_0 main@%shadow.mem.0.7_0)
                true
                (= main@%_45_0 (< main@%.7.i_0 100000))
                (=> main@_bb30_0 (and main@_bb30_0 main@_bb29_0))
                (=> (and main@_bb30_0 main@_bb29_0) main@%_45_0)
                a!1
                (=> main@_bb30_0 (or (<= main@%_0_0 0) (> main@%_47_0 0)))
                (=> main@_bb30_0 (> main@%_0_0 0))
                (=> main@_bb30_0
                    (= main@%sm7_0
                       (store main@%shadow.mem.0.7_0 main@%_47_0 49)))
                (=> main@_bb30_0 (= main@%_48_0 (+ main@%.7.i_0 1)))
                (=> main@_bb29_1 (and main@_bb29_1 main@_bb30_0))
                (=> (and main@_bb29_1 main@_bb30_0)
                    (= main@%shadow.mem.0.7_1 main@%sm7_0))
                (=> (and main@_bb29_1 main@_bb30_0)
                    (= main@%.7.i_1 main@%_48_0))
                (=> (and main@_bb29_1 main@_bb30_0)
                    (= main@%shadow.mem.0.7_2 main@%shadow.mem.0.7_1))
                (=> (and main@_bb29_1 main@_bb30_0)
                    (= main@%.7.i_2 main@%.7.i_1))
                main@_bb29_1)))
  (=> a!2 (main@_bb29 main@%_0_0 main@%.7.i_2 main@%shadow.mem.0.7_2)))))
(rule (=> (and (main@_bb29 main@%_0_0 main@%.7.i_0 main@%shadow.mem.0.7_0)
         true
         (= main@%_45_0 (< main@%.7.i_0 100000))
         (=> main@_bb31_0 (and main@_bb31_0 main@_bb29_0))
         (=> (and main@_bb31_0 main@_bb29_0) (not main@%_45_0))
         (=> main@_bb32_0 (and main@_bb32_0 main@_bb31_0))
         (=> (and main@_bb32_0 main@_bb31_0) (= main@%.0.i_0 0))
         (=> (and main@_bb32_0 main@_bb31_0) (= main@%.0.i_1 main@%.0.i_0))
         main@_bb32_0)
    (main@_bb32 main@%_0_0 main@%shadow.mem.0.7_0 main@%.0.i_1)))
(rule (let ((a!1 (=> main@_bb33_0
               (= main@%_53_0 (+ main@%_0_0 (* 0 400000) (* main@%.0.i_0 4))))))
(let ((a!2 (and (main@_bb32 main@%_0_0 main@%shadow.mem.0.7_0 main@%.0.i_0)
                true
                (= main@%_51_0 (< main@%.0.i_0 100000))
                main@%_51_0
                (=> main@_bb33_0 (and main@_bb33_0 main@_bb32_0))
                a!1
                (=> main@_bb33_0 (or (<= main@%_0_0 0) (> main@%_53_0 0)))
                (=> main@_bb33_0 (> main@%_0_0 0))
                (=> main@_bb33_0
                    (= main@%_54_0 (select main@%shadow.mem.0.7_0 main@%_53_0)))
                (=> main@_bb33_0 (= main@%_55_0 (= main@%_54_0 49)))
                (=> main@_bb33_0 (= main@%_56_0 (ite main@%_55_0 1 0)))
                (=> main@postcall_0 (and main@postcall_0 main@_bb33_0))
                (=> (and main@postcall_0 main@_bb33_0) main@%_57_0)
                (__JVERIFIER_assert main@postcall_0 false false main@%_56_0)
                (=> main@postcall_0 (= main@%_58_0 (+ main@%.0.i_0 1)))
                (=> main@_bb32_1 (and main@_bb32_1 main@postcall_0))
                (=> (and main@_bb32_1 main@postcall_0)
                    (= main@%.0.i_1 main@%_58_0))
                (=> (and main@_bb32_1 main@postcall_0)
                    (= main@%.0.i_2 main@%.0.i_1))
                main@_bb32_1)))
  (=> a!2 (main@_bb32 main@%_0_0 main@%shadow.mem.0.7_0 main@%.0.i_2)))))
(rule (let ((a!1 (=> main@_bb33_0
               (= main@%_53_0 (+ main@%_0_0 (* 0 400000) (* main@%.0.i_0 4))))))
(let ((a!2 (and (main@_bb32 main@%_0_0 main@%shadow.mem.0.7_0 main@%.0.i_0)
                true
                (= main@%_51_0 (< main@%.0.i_0 100000))
                main@%_51_0
                (=> main@_bb33_0 (and main@_bb33_0 main@_bb32_0))
                a!1
                (=> main@_bb33_0 (or (<= main@%_0_0 0) (> main@%_53_0 0)))
                (=> main@_bb33_0 (> main@%_0_0 0))
                (=> main@_bb33_0
                    (= main@%_54_0 (select main@%shadow.mem.0.7_0 main@%_53_0)))
                (=> main@_bb33_0 (= main@%_55_0 (= main@%_54_0 49)))
                (=> main@_bb33_0 (= main@%_56_0 (ite main@%_55_0 1 0)))
                (=> main@precall_0 (and main@precall_0 main@_bb33_0))
                (=> (and main@precall_0 main@_bb33_0) (not main@%_57_0))
                (=> main@__JVERIFIER_assert_0
                    (and main@__JVERIFIER_assert_0 main@precall_0))
                (=> main@__JVERIFIER_assert_0 (= main@%_59_0 (= main@%_56_0 0)))
                (=> main@__JVERIFIER_assert_0 main@%_59_0)
                (=> main@_bb34_0 (and main@_bb34_0 main@__JVERIFIER_assert_0))
                (=> main@verifier.error_0
                    (and main@verifier.error_0 main@_bb34_0))
                (=> main@verifier.error.split_0
                    (and main@verifier.error.split_0 main@verifier.error_0))
                main@verifier.error.split_0)))
  (=> a!2 main@verifier.error.split))))
(query main@verifier.error.split)

